100 8
711 835
683 610
290 122
777 979
383 597
808 174
255 11
814 980
650 764
796 846
390 674
563 687
852 722
690 671
559 217
794 690
578 58
630 779
313 186
535 828
378 665
910 517
473 626
485 731
545 173
457 123
498 696
954 560
429 894
784 608
473 631
454 587
376 661
671 518
300 43
270 766
520 729
570 623
909 549
591 789
450 69
328 661
432 43
448 637
442 696
679 503
860 979
575 704
719 320
491 31
844 694
429 744
90 462
907 514
104 581
755 707
807 602
558 55
416 68
843 162
255 557
590 784
673 582
527 256
675 274
726 689
770 516
821 641
668 249
354 758
423 843
348 600
409 599
231 194
413 747
768 166
692 738
299 724
409 829
822 736
465 697
857 838
408 707
206 491
341 776
365 846
532 681
398 769
715 251
420 620
276 883
263 655
597 373
613 394
739 870
338 617
590 555
677 471
142 513
335 768
